
  32    4
  10   10   10   10

   0   0   0   0   0   2 2 6 
   6  10  10  10  10   2 8 3 
   9  10  10  10  10   2 7 4 
   6  10  10  10  10   2 9 5 
   3  10  10  10  10   4 16 15 14 10 
   5  10  10  10  10   3 16 14 10 
  10  10  10  10  10   3 16 15 11 
   7  10  10  10  10   3 16 14 11 
   3  10  10  10  10   4 16 15 14 13 
  10  10  10  10  10   1 11 
   9  10  10  10  10   1 12 
   9  10  10  10  10   3 20 17 13 
   2  10  10  10  10   3 31 23 18 
   6  10  10  10  10   2 19 17 
   3  10  10  10  10   2 20 18 
   8  10  10  10  10   2 31 18 
   3  10  10  10  10   4 31 25 23 21 
   9  10  10  10  10   1 19 
  10  10  10  10  10   2 25 21 
   7  10  10  10  10   2 31 21 
   7  10  10  10  10   2 26 22 
   2  10  10  10  10   2 29 24 
   7  10  10  10  10   2 30 26 
   6  10  10  10  10   2 30 27 
   5  10  10  10  10   1 26 
   2  10  10  10  10   2 29 28 
   3  10  10  10  10   1 28 
   7  10  10  10  10   1 32
   6  10  10  10  10   1 32
  10  10  10  10  10   1 32
   4  10  10  10  10   1 32
   0   0   0   0   0   0 
